Minimize
  obj: x0 + x1 + x2 + x3 + x4 + x5 + x6 + x7 + x8 + x9 + x10 + x11

Subject To
  c0: x1 + x2 + x5 + x6 + x7 + x8 + x10 = 68
  c1: x0 + x4 = 24
  c2: x0 + x1 + x3 + x5 + x7 + x8 + x10 + x11 = 62
  c3: x0 + x1 + x3 + x5 + x9 + x10 = 33
  c4: x0 + x1 + x6 + x7 = 50
  c5: x0 + x1 + x3 + x5 + x8 + x10 = 39
  c6: x0 + x2 + x5 + x7 + x10 + x11 = 60
  c7: x0 + x2 + x5 + x7 + x9 + x10 = 57
  c8: x0 + x1 + x2 + x3 + x4 + x8 = 52
  c9: x1 + x5 = 1

Bounds
  x0 >= 0
  x1 >= 0
  x2 >= 0
  x3 >= 0
  x4 >= 0
  x5 >= 0
  x6 >= 0
  x7 >= 0
  x8 >= 0
  x9 >= 0
  x10 >= 0
  x11 >= 0

Generals
  x0 x1 x2 x3 x4 x5 x6 x7 x8 x9 x10 x11

End
